c Random 2 Leveled Graph
c 10 Rows, 10 columns, capacities in range [0, 100]
p max 102 290
n 1 s
n 102 t
a 1 11 300
a 1 10 300
a 1 9 300
a 1 8 300
a 1 7 300
a 1 6 300
a 1 5 300
a 1 4 300
a 1 3 300
a 1 2 300
a 2 18 88
a 2 19 86
a 2 15 82
a 3 15 35
a 3 13 74
a 3 19 98
a 4 14 21
a 4 20 84
a 4 13 15
a 5 21 20
a 5 14 19
a 5 17 85
a 6 21 90
a 6 20 41
a 6 12 84
a 7 20 25
a 7 19 92
a 7 21 96
a 8 17 11
a 8 20 38
a 8 16 38
a 9 21 95
a 9 12 7
a 9 13 26
a 10 19 49
a 10 13 100
a 10 20 58
a 11 19 29
a 11 21 11
a 11 20 4
a 12 29 92
a 12 31 11
a 12 24 30
a 13 30 92
a 13 22 40
a 13 25 53
a 14 24 49
a 14 31 86
a 14 26 2
a 15 30 78
a 15 29 29
a 15 31 17
a 16 22 75
a 16 29 46
a 16 28 60
a 17 23 93
a 17 26 20
a 17 31 8
a 18 23 64
a 18 24 49
a 18 29 79
a 19 31 59
a 19 23 12
a 19 22 2
a 20 28 84
a 20 22 17
a 20 23 59
a 21 24 37
a 21 30 75
a 21 27 36
a 22 35 83
a 22 37 60
a 22 41 11
a 23 33 42
a 23 35 59
a 23 36 83
a 24 34 81
a 24 40 23
a 24 38 38
a 25 41 57
a 25 34 3
a 25 40 71
a 26 32 17
a 26 39 24
a 26 33 67
a 27 33 94
a 27 32 3
a 27 39 68
a 28 38 49
a 28 37 4
a 28 34 37
a 29 33 33
a 29 35 4
a 29 34 36
a 30 35 70
a 30 33 76
a 30 39 61
a 31 39 15
a 31 36 18
a 31 33 100
a 32 46 90
a 32 45 36
a 32 42 26
a 33 50 11
a 33 46 7
a 33 44 58
a 34 46 8
a 34 51 84
a 34 45 83
a 35 50 30
a 35 42 88
a 35 44 86
a 36 42 25
a 36 50 43
a 36 44 31
a 37 45 58
a 37 51 6
a 37 47 40
a 38 49 61
a 38 46 65
a 38 45 31
a 39 46 90
a 39 42 18
a 39 43 27
a 40 46 70
a 40 47 75
a 40 51 29
a 41 51 72
a 41 46 55
a 41 48 48
a 42 59 47
a 42 55 59
a 42 53 54
a 43 55 26
a 43 54 29
a 43 58 59
a 44 52 10
a 44 60 56
a 44 54 81
a 45 57 57
a 45 54 79
a 45 53 50
a 46 58 58
a 46 54 57
a 46 60 16
a 47 54 22
a 47 52 24
a 47 60 76
a 48 57 15
a 48 53 11
a 48 54 36
a 49 54 61
a 49 56 97
a 49 53 34
a 50 53 39
a 50 60 44
a 50 56 20
a 51 54 42
a 51 56 34
a 51 59 7
a 52 71 51
a 52 70 91
a 52 68 70
a 53 64 29
a 53 70 92
a 53 66 69
a 54 67 96
a 54 66 71
a 54 65 86
a 55 68 55
a 55 63 90
a 55 71 45
a 56 70 2
a 56 65 48
a 56 64 49
a 57 62 13
a 57 67 65
a 57 66 24
a 58 70 19
a 58 62 82
a 58 67 92
a 59 67 91
a 59 69 28
a 59 68 2
a 60 69 64
a 60 71 21
a 60 64 48
a 61 63 26
a 61 66 34
a 61 71 90
a 62 79 60
a 62 72 97
a 62 75 89
a 63 74 36
a 63 78 58
a 63 75 4
a 64 81 61
a 64 75 21
a 64 76 27
a 65 80 18
a 65 73 33
a 65 81 73
a 66 78 72
a 66 77 33
a 66 80 44
a 67 73 94
a 67 81 38
a 67 75 25
a 68 80 74
a 68 77 21
a 68 72 55
a 69 78 98
a 69 81 29
a 69 75 36
a 70 73 80
a 70 78 26
a 70 76 89
a 71 74 98
a 71 75 55
a 71 78 81
a 72 88 55
a 72 87 42
a 72 82 4
a 73 88 3
a 73 83 74
a 73 90 28
a 74 90 46
a 74 84 53
a 74 83 39
a 75 89 99
a 75 82 38
a 75 87 84
a 76 84 25
a 76 82 19
a 76 83 27
a 77 87 59
a 77 89 76
a 77 85 94
a 78 91 45
a 78 85 90
a 78 88 6
a 79 88 58
a 79 89 23
a 79 87 52
a 80 86 68
a 80 90 42
a 80 82 69
a 81 87 90
a 81 85 78
a 81 83 13
a 82 96 91
a 82 98 37
a 82 101 84
a 83 98 3
a 83 96 54
a 83 101 64
a 84 99 28
a 84 94 76
a 84 95 12
a 85 101 75
a 85 95 38
a 85 99 25
a 86 96 61
a 86 101 49
a 86 94 64
a 87 98 36
a 87 94 35
a 87 101 78
a 88 93 34
a 88 97 2
a 88 94 68
a 89 100 14
a 89 95 15
a 89 92 81
a 90 92 56
a 90 93 47
a 90 101 49
a 91 101 72
a 91 97 96
a 91 94 86
a 92 102 300
a 93 102 300
a 94 102 300
a 95 102 300
a 96 102 300
a 97 102 300
a 98 102 300
a 99 102 300
a 100 102 300
a 101 102 300
